/*********************************************
 * OPL 22.1.0.0 Model
 * Author: Ben
 * Creation Date: Dec 15, 2022 at 12:24:20 PM
 *********************************************/    

// Arrival time/departure time given in seconds after midnight

NF = 33;
NG = 5;

// Times given in seconds after midnight

ARRIVAL_TIMES =[59926, 43529, 55459, 69893, 52266, 33100, 71030, 59234, 43914, 51805, 43096, 42460, 74613, 60870, 50345, 47973, 53251, 44856, 60814, 53400, 70911, 52825, 59587, 41219, 64349, 74587, 47809, 47098, 46914, 42530, 78654, 62111, 55998];
DEPART_TIMES = [63526, 47129, 59059, 73493, 55866, 36700, 74630, 62834, 47514, 55405, 46696, 46060, 78213, 64470, 53945, 51573, 56851, 48456, 64414, 57000, 74511, 56425, 63187, 44819, 67949, 78187, 51409, 50698, 50514, 46130, 82254, 65711, 59598];